100
100
39 5
41 5
27 2
39 5
33 4
42 6
28 4
44 6
43 6
44 5
28 3
25 3
35 4
31 3
33 4
27 3
28 4
37 4
31 3
42 5
36 4
39 4
27 2
41 4
26 3
33 3
26 3
40 4
43 4
43 5
28 3
25 2
37 3
40 5
35 3
36 4
43 5
44 5
44 6
36 5
35 3
42 4
34 4
26 3
35 3
29 4
35 4
43 5
39 4
42 4
41 4
35 4
28 4
29 4
28 3
39 4
30 3
30 4
26 3
25 3
32 4
34 3
38 4
28 3
36 4
40 5
30 3
45 6
45 5
39 4
38 5
28 2
35 4
33 3
39 5
35 3
45 5
26 3
27 3
44 5
39 5
32 3
26 3
41 4
44 4
36 4
31 3
45 6
39 4
27 3
40 4
39 4
40 5
32 4
35 3
40 5
33 4
43 5
30 3
38 4
